
Gurobi 9.1.2 (win64, Java) logging started Sat Nov  6 06:58:53 2021

Academic license - for non-commercial use only - expires 2022-10-30
Gurobi Optimizer version 9.1.2 build v9.1.2rc0 (win64)
Thread count: 6 physical cores, 12 logical processors, using up to 12 threads
Optimize a model with 60 rows, 800 columns and 1600 nonzeros
Model fingerprint: 0xe384ead6
Variable types: 0 continuous, 800 integer (800 binary)
Coefficient statistics:
  Matrix range     [1e+00, 1e+03]
  Objective range  [5e+01, 9e+02]
  Bounds range     [1e+00, 1e+00]
  RHS range        [1e+00, 9e+02]
Found heuristic solution: objective 7740.0000000
Presolve removed 3 rows and 412 columns
Presolve time: 0.02s
Presolved: 57 rows, 388 columns, 776 nonzeros
Variable types: 0 continuous, 388 integer (388 binary)
Presolved: 57 rows, 388 columns, 776 nonzeros


Root relaxation: objective 1.108443e+04, 91 iterations, 0.00 seconds

    Nodes    |    Current Node    |     Objective Bounds      |     Work
 Expl Unexpl |  Obj  Depth IntInf | Incumbent    BestBd   Gap | It/Node Time

     0     0 11084.4307    0    9 7740.00000 11084.4307  43.2%     -    0s
H    0     0                    10823.000000 11084.4307  2.42%     -    0s
     0     0     cutoff    0      10823.0000 10823.0000  0.00%     -    0s

Cutting planes:
  Gomory: 8
  Cover: 6
  MIR: 5
  StrongCG: 5

Explored 1 nodes (224 simplex iterations) in 0.18 seconds
Thread count was 12 (of 12 available processors)

Solution count 2: 10823 7740 

Optimal solution found (tolerance 1.00e-04)
Best objective 1.082300000000e+04, best bound 1.082300000000e+04, gap 0.0000%
